webassembly/ejemplos_dzn/folder9_json_88.dzn
TERM = { '.', 's(2)', 'in_1', 'local_1', 'in_6', 'in_2', 'in_4', 'in_3', 's(1)', 's(0)', 'in_5', 's(3)', 'in_0'};
null = '.';
s = 9;
n = 12;
ndeps = 3;
max_registers_sz = 4;
NR = 1;
registers = [|'local_1', 's(2)'|];
dependencies = [|'call[function_index(0)]_2', 'i32.store8_3', |'i32.store8_3', 'i32.store16_5', |'i32.store16_5', 'i32.load_7'|];
GET_ENUM = { GET1, GET2, GET3, GET4, GET5};
SET_ENUM = { SET1, SET2, SET3, SET4, SET5};
TEE_ENUM = { TEE1, TEE2, TEE3, TEE4, TEE5};
N = 6;
OP = { 'i32.const_0', 'call[function_index(0)]_2', 'i32.store8_3', 'i32.store16_5', 'i32.add_0', 'i32.load_7' };
in_ops = [0, 3, 2, 2, 2, 1 ];
out_ops = [1, 1, 0, 0, 1, 1 ];
in1 = ['.', 's(3)', 's(0)', 'in_0', 'in_5', 's(1)' ];
in2 = ['.', 'in_1', 'in_3', 'in_4', 'in_6', '.' ];
in3 = ['.', 'in_2', '.', '.', '.', '.' ];
out1 = ['s(3)', 's(0)', '.', '.', 's(1)', 's(2)' ];
out2 = ['.', '.', '.', '.', '.', '.' ];
out3 = ['.', '.', '.', '.', '.', '.' ];
comm = [false, false, false, false, true, false ];
gas = [1, 1, 1, 1, 1, 1 ];
sz = [1, 1, 1, 1, 1, 1 ];
stor = [false, true, true, true, false, false ];
lb = [ 1, 1, 1, 1, 1, 1 ];
ub = [ 9, 9, 9, 9, 9, 9 ];
startstack = [ 'in_0', 'in_1', 'in_2', 'in_3', 'in_4', 'in_5', 'in_6', null, null, null, null, null ];
endstack = [ 's(2)', null, null, null, null, null, null, null, null, null, null, null ];
